1
150
67
30 1
31 2
32 2
33 3
34 5
35 4
36 4
37 6
38 5
39 1
41 2
42 1
43 4
44 1
45 2
46 5
47 2
48 4
49 2
50 3
51 2
52 4
53 3
54 1
55 2
56 4
57 2
58 6
59 5
60 2
62 4
63 4
64 1
65 2
66 1
67 2
68 2
69 4
70 1
71 7
72 3
73 4
74 3
76 2
77 3
79 4
80 1
81 1
82 4
83 4
84 2
85 1
86 1
87 4
88 4
89 4
90 1
91 2
92 4
93 2
94 6
95 6
96 5
97 6
98 3
99 1
100 1
